
Gurobi 11.0.3 (linux64) logging started Sat Nov 23 07:33:01 2024

Set parameter LogFile to value "/home/yihong/Coding/OR_SUC/SUC_results_bigM100000_thread4/case24_ieee_rts_theta0.5_epsilon0.05_gurobi_seed860000_num_gen100_N_WDR50_load_scaling_factor1_exact_T24quadra_cost.txt"
Set parameter TimeLimit to value 3600
Gurobi Optimizer version 11.0.3 build v11.0.3rc0 (linux64 - "Ubuntu 20.04.6 LTS")

CPU model: AMD EPYC 7532 32-Core Processor, instruction set [SSE2|AVX|AVX2]
Thread count: 64 physical cores, 128 logical processors, using up to 4 threads

Optimize a model with 51943 rows, 29861 columns and 712638 nonzeros
Model fingerprint: 0xa09c39a7
Model has 2400 quadratic constraints
Variable types: 27411 continuous, 2450 integer (2450 binary)
Coefficient statistics:
  Matrix range     [3e-04, 1e+05]
  QMatrix range    [2e-03, 8e-03]
  QLMatrix range   [9e-02, 6e+01]
  Objective range  [1e+00, 1e+00]
  Bounds range     [1e+00, 1e+00]
  RHS range        [2e-01, 1e+05]
Presolve removed 42063 rows and 12909 columns
Presolve time: 0.25s
Presolved: 9880 rows, 16952 columns, 62695 nonzeros
Presolved model has 2400 quadratic constraint(s)
Variable types: 14505 continuous, 2447 integer (2447 binary)

Root relaxation: objective 4.396204e+04, 7892 iterations, 0.21 seconds (0.31 work units)

    Nodes    |    Current Node    |     Objective Bounds      |     Work
 Expl Unexpl |  Obj  Depth IntInf | Incumbent    BestBd   Gap | It/Node Time

     0     0 43962.0368    0   28          - 43962.0368      -     -    0s
     0     0 335703.920    0  756          - 335703.920      -     -    1s
     0     0 366579.707    0  732          - 366579.707      -     -    1s
     0     0 639948.549    0  660          - 639948.549      -     -    1s
     0     0 640029.444    0  423          - 640029.444      -     -    1s
     0     0 640478.081    0  380          - 640478.081      -     -    1s
     0     0 640567.094    0  373          - 640567.094      -     -    1s
     0     0 640687.530    0  375          - 640687.530      -     -    1s
     0     0 640716.605    0  375          - 640716.605      -     -    1s
     0     2 640716.605    0  375          - 640716.605      -     -    2s
   400   440 641369.962   86  146          - 640907.806      -  60.9    5s
H  632   312                    641370.19815 640993.524  0.06%  41.5    5s
*  632   312             166    641370.19815 640993.524  0.06%  41.5    5s

Cutting planes:
  Gomory: 7
  Implied bound: 252
  MIR: 96
  Flow cover: 175
  PSD: 3

Explored 732 nodes (48933 simplex iterations) in 6.17 seconds (8.30 work units)
Thread count was 4 (of 128 available processors)

Solution count 2: 641370 641370 

Optimal solution found (tolerance 1.00e-03)
Warning: max constraint violation (5.5329e-07) exceeds tolerance
Best objective 6.413701981537e+05, best bound 6.409935240785e+05, gap 0.0587%
